NAME : Random_TSP_Instance
TYPE : TSP
DIMENSION : 15
EDGE_WEIGHT_TYPE : EXPLICIT
EDGE_WEIGHT_FORMAT : FULL_MATRIX
NODE_COORD_TYPE : NO_COORDS
DISPLAY_DATA_TYPE: TWOD_DISPLAY
EDGE_WEIGHT_SECTION
1563730.912119 1563730.912119 1563730.912119 1563730.912119 1563730.912119 1563730.912119 1563730.912119 1563730.912119 1563730.912119 1563730.912119 1563730.912119 1563730.912119 17.421523 64.944068 1563730.912119
1563730.912119 1563730.912119 1563730.912119 1563730.912119 1563730.912119 1563730.912119 67.655960 5.544105 55.298718 1563730.912119 21.124694 36.862408 1563730.912119 47.907850 1563730.912119
1563730.912119 1563730.912119 1563730.912119 1563730.912119 65.774580 33.327643 95.698106 1563730.912119 1563730.912119 1563730.912119 1563730.912119 23.279501 1563730.912119 1563730.912119 1563730.912119
1563730.912119 1563730.912119 114.061139 1563730.912119 64.149638 1563730.912119 72.558231 49.017257 1563730.912119 1563730.912119 51.699258 1563730.912119 1563730.912119 92.927658 1563730.912119
1563730.912119 36.712493 65.774580 64.149638 1563730.912119 1563730.912119 33.590699 1563730.912119 1563730.912119 1563730.912119 1563730.912119 1563730.912119 1563730.912119 80.313985 23.781110
1563730.912119 1563730.912119 1563730.912119 1563730.912119 54.765115 1563730.912119 1563730.912119 1563730.912119 13.287431 56.563458 1563730.912119 1563730.912119 1563730.912119 1563730.912119 48.747624
1563730.912119 67.655960 1563730.912119 1563730.912119 33.590699 1563730.912119 1563730.912119 1563730.912119 1563730.912119 82.230460 1563730.912119 1563730.912119 1563730.912119 113.506367 27.351590
1563730.912119 1563730.912119 1563730.912119 49.017257 36.976624 1563730.912119 1563730.912119 1563730.912119 1563730.912119 1563730.912119 20.155115 1563730.912119 1563730.912119 1563730.912119 60.356243
1563730.912119 55.298718 1563730.912119 102.839642 1563730.912119 1563730.912119 68.537624 59.665244 1563730.912119 44.682644 1563730.912119 1563730.912119 6.464877 73.878972 1563730.912119
44.207574 1563730.912119 1563730.912119 78.571275 1563730.912119 56.563458 82.230460 1563730.912119 1563730.912119 1563730.912119 1563730.912119 16.124160 1563730.912119 1563730.912119 1563730.912119
66.376889 1563730.912119 1563730.912119 1563730.912119 17.408033 1563730.912119 1563730.912119 20.155115 1563730.912119 1563730.912119 1563730.912119 1563730.912119 1563730.912119 68.046633 1563730.912119
1563730.912119 1563730.912119 23.279501 91.175492 1563730.912119 1563730.912119 1563730.912119 1563730.912119 1563730.912119 16.124160 1563730.912119 1563730.912119 31.176824 1563730.912119 61.735734
17.421523 1563730.912119 25.451878 1563730.912119 1563730.912119 1563730.912119 1563730.912119 1563730.912119 6.464877 1563730.912119 1563730.912119 1563730.912119 1563730.912119 1563730.912119 1563730.912119
64.944068 1563730.912119 1563730.912119 1563730.912119 1563730.912119 1563730.912119 1563730.912119 51.551889 1563730.912119 32.820547 68.046633 1563730.912119 1563730.912119 1563730.912119 1563730.912119
1563730.912119 59.421413 1563730.912119 1563730.912119 23.781110 48.747624 27.351590 1563730.912119 1563730.912119 1563730.912119 1563730.912119 1563730.912119 1563730.912119 98.999810 1563730.912119
EOF
